networks/zoo_122_732/zoo_122_732.txt
Number of groups: 76
Flow 1: {1 36} {36 3} {3 64} 
Flow 36: {2 5} {5 56} 
Flow 38: {3 36} {36 38} {38 99} 
Flow 44: {4 38} {38 36} {36 97} 
Flow 66: {5 11} {11 45} 
Flow 79: {6 56} {56 11} {11 22} {22 23} {23 84} 
Flow 95: {8 5} 
Flow 106: {9 23} {23 22} {22 19} {19 80} 
Flow 128: {12 56} {56 117} 
Flow 129: {13 21} {21 22} 
Flow 134: {38 4} {4 65} 
Flow 138: {5 8} {8 69} 
Flow 140: {11 72} 
Flow 141: {56 12} {12 73} 
Flow 142: {22 21} {21 13} {13 74} 
Flow 144: {15 35} {35 17} {17 78} 
Flow 147: {22 20} {20 81} 
Flow 148: {21 82} 
Flow 158: {32 34} {34 95} 
Flow 169: {7 46} {46 107} 
Flow 170: {47 108} 
Flow 171: {50 48} {48 109} 
Flow 172: {50 49} {49 110} 
Flow 174: {50 51} {51 112} 
Flow 175: {38 52} {52 113} 
Flow 177: {38 41} {41 55} {55 116} 
Flow 180: {15 58} {58 119} 
Flow 183: {15 47} {47 61} {61 122} 
Flow 194: {16 36} {36 57} {57 118} 
Flow 196: {17 35} 
Flow 231: {56 45} {45 106} 
Flow 232: {19 50} {50 111} 
Flow 257: {24 22} {22 11} {11 56} 
Flow 262: {26 38} {38 56} {56 28} {28 89} 
Flow 272: {28 56} {56 5} {5 66} 
Flow 305: {30 60} {60 121} 
Flow 308: {31 30} {30 15} {15 36} {36 53} {53 114} 
Flow 313: {33 50} 
Flow 325: {34 32} {32 35} {35 15} {15 56} {56 60} 
Flow 340: {35 18} {18 57} {57 39} {39 100} 
Flow 360: {15 30} {30 14} {14 75} 
Flow 369: {22 24} {24 85} 
Flow 375: {30 31} {31 92} 
Flow 380: {35 37} 
Flow 396: {36 16} {16 54} {54 115} 
Flow 404: {37 35} {35 36} {36 1} {1 62} 
Flow 414: {37 38} {38 40} {40 60} 
Flow 429: {38 57} {57 18} {18 79} 
Flow 449: {50 43} {43 104} 
Flow 450: {56 19} {19 44} {44 105} 
Flow 467: {39 38} 
Flow 485: {41 60} {60 30} {30 91} 
Flow 497: {42 19} 
Flow 512: {44 19} {19 56} {56 38} {38 39} 
Flow 518: {45 56} {56 6} {6 67} 
Flow 529: {46 7} {7 56} {56 15} 
Flow 535: {48 50} {50 15} 
Flow 537: {49 50} 
Flow 564: {52 38} 
Flow 575: {50 19} {19 22} {22 83} 
Flow 582: {53 36} {36 35} {35 32} {32 93} 
Flow 583: {15 50} {50 33} {33 94} 
Flow 599: {54 16} {16 38} 
Flow 603: {55 41} {41 38} 
Flow 635: {38 37} {37 98} 
Flow 667: {57 36} {36 15} {15 27} {27 88} 
Flow 671: {18 35} {35 96} 
Flow 680: {57 38} {38 59} {59 120} 
Flow 682: {58 15} 
Flow 690: {59 38} {38 26} {26 87} 
Flow 705: {60 56} {56 7} {7 68} 
Flow 706: {59 10} {10 71} 
Flow 711: {40 38} {38 25} {25 86} 
Flow 721: {60 40} {40 101} 
Flow 722: {60 41} {41 102} 
Flow 729: {61 47} {47 15} {15 76} 
Time taken running everything: 9 seconds
